&inputph
	tr2_ph=1.0d-14,
	prefix='silicon',
	outdir='./tmp'
	fildyn='si.dyn',
	ldisp=.false.
/
0.0  0.0  0.0