&inputph
	tr2_ph=1.0d-14,
	prefix='silicon',
	outdir='./tmp'
	fildyn='si.dyn',
	ldisp=.true.
	nq1=2
	nq2=2
	nq3=2
/
