&input
 fildyn='si.dyn'
 flfrc='si.fc'
/