&control
 calculation = 'scf'
 prefix='silicon',
 pseudo_dir = './',
 outdir='./tmp'
 disk_io='low'
/
&system
 ibrav = 2,
 celldm(1) = 10.2273,
 nat = 2,
 ntyp = 1,
 ecutwfc = 30.0,
/
&electrons
 mixing_beta = 0.7
 conv_thr = 1.0d-8
/
ATOMIC_SPECIES
Si  28.0855 Si.pz-vbc.UPF
ATOMIC_POSITIONS {crystal}
Si 0.0 0.0 0.0
Si 0.25 0.25 0.25
K_POINTS {automatic}
4 4 4 0 0 0
